p cnf 386 460
-1 -2 14 21 22 0
-1 -2 14 21 -22 0
-1 -2 14 -21 23 0
-1 -2 14 -21 -23 0
10 -5 3 24 25 0
10 -5 3 24 -25 0
10 -5 3 -24 26 0
10 -5 3 -24 -26 0
17 5 -12 27 28 0
17 5 -12 27 -28 0
17 5 -12 -27 29 0
17 5 -12 -27 -29 0
-12 7 13 30 31 0
-12 7 13 30 -31 0
-12 7 13 -30 32 0
-12 7 13 -30 -32 0
5 9 -12 33 34 0
5 9 -12 33 -34 0
5 9 -12 -33 35 0
5 9 -12 -33 -35 0
8 -7 -5 36 37 0
8 -7 -5 36 -37 0
8 -7 -5 -36 38 0
8 -7 -5 -36 -38 0
-13 -2 -15 39 40 0
-13 -2 -15 39 -40 0
-13 -2 -15 -39 41 0
-13 -2 -15 -39 -41 0
-11 19 -3 42 43 0
-11 19 -3 42 -43 0
-11 19 -3 -42 44 0
-11 19 -3 -42 -44 0
-7 -13 5 45 46 0
-7 -13 5 45 -46 0
-7 -13 5 -45 47 0
-7 -13 5 -45 -47 0
-8 -2 16 48 49 0
-8 -2 16 48 -49 0
-8 -2 16 -48 50 0
-8 -2 16 -48 -50 0
-20 18 -7 51 52 0
-20 18 -7 51 -52 0
-20 18 -7 -51 53 0
-20 18 -7 -51 -53 0
-19 -1 14 54 55 0
-19 -1 14 54 -55 0
-19 -1 14 -54 56 0
-19 -1 14 -54 -56 0
-4 -14 8 57 58 0
-4 -14 8 57 -58 0
-4 -14 8 -57 59 0
-4 -14 8 -57 -59 0
6 -12 -8 60 61 0
6 -12 -8 60 -61 0
6 -12 -8 -60 62 0
6 -12 -8 -60 -62 0
-19 -1 -14 63 64 0
-19 -1 -14 63 -64 0
-19 -1 -14 -63 65 0
-19 -1 -14 -63 -65 0
-11 4 8 66 67 0
-11 4 8 66 -67 0
-11 4 8 -66 68 0
-11 4 8 -66 -68 0
-19 18 20 69 70 0
-19 18 20 69 -70 0
-19 18 20 -69 71 0
-19 18 20 -69 -71 0
6 -10 3 72 73 0
6 -10 3 72 -73 0
6 -10 3 -72 74 0
6 -10 3 -72 -74 0
-16 -19 7 75 76 0
-16 -19 7 75 -76 0
-16 -19 7 -75 77 0
-16 -19 7 -75 -77 0
-17 11 16 78 79 0
-17 11 16 78 -79 0
-17 11 16 -78 80 0
-17 11 16 -78 -80 0
-1 -11 14 81 82 0
-1 -11 14 81 -82 0
-1 -11 14 -81 83 0
-1 -11 14 -81 -83 0
17 -12 20 84 85 0
17 -12 20 84 -85 0
17 -12 20 -84 86 0
17 -12 20 -84 -86 0
-15 -3 -6 87 88 0
-15 -3 -6 87 -88 0
-15 -3 -6 -87 89 0
-15 -3 -6 -87 -89 0
16 12 13 90 91 0
16 12 13 90 -91 0
16 12 13 -90 92 0
16 12 13 -90 -92 0
7 -5 19 93 94 0
7 -5 19 93 -94 0
7 -5 19 -93 95 0
7 -5 19 -93 -95 0
-8 16 2 96 97 0
-8 16 2 96 -97 0
-8 16 2 -96 98 0
-8 16 2 -96 -98 0
12 -1 2 99 100 0
12 -1 2 99 -100 0
12 -1 2 -99 101 0
12 -1 2 -99 -101 0
-15 -18 11 102 103 0
-15 -18 11 102 -103 0
-15 -18 11 -102 104 0
-15 -18 11 -102 -104 0
-10 -3 17 105 106 0
-10 -3 17 105 -106 0
-10 -3 17 -105 107 0
-10 -3 17 -105 -107 0
-17 -16 -5 108 109 0
-17 -16 -5 108 -109 0
-17 -16 -5 -108 110 0
-17 -16 -5 -108 -110 0
7 -6 8 111 112 0
7 -6 8 111 -112 0
7 -6 8 -111 113 0
7 -6 8 -111 -113 0
-12 -17 -11 114 115 0
-12 -17 -11 114 -115 0
-12 -17 -11 -114 116 0
-12 -17 -11 -114 -116 0
7 -9 -6 117 118 0
7 -9 -6 117 -118 0
7 -9 -6 -117 119 0
7 -9 -6 -117 -119 0
11 -2 -8 120 121 0
11 -2 -8 120 -121 0
11 -2 -8 -120 122 0
11 -2 -8 -120 -122 0
-18 7 16 123 124 0
-18 7 16 123 -124 0
-18 7 16 -123 125 0
-18 7 16 -123 -125 0
3 14 -10 126 127 0
3 14 -10 126 -127 0
3 14 -10 -126 128 0
3 14 -10 -126 -128 0
15 -6 10 129 130 0
15 -6 10 129 -130 0
15 -6 10 -129 131 0
15 -6 10 -129 -131 0
-13 6 11 132 133 0
-13 6 11 132 -133 0
-13 6 11 -132 134 0
-13 6 11 -132 -134 0
4 -6 9 135 136 0
4 -6 9 135 -136 0
4 -6 9 -135 137 0
4 -6 9 -135 -137 0
-3 4 19 138 139 0
-3 4 19 138 -139 0
-3 4 19 -138 140 0
-3 4 19 -138 -140 0
1 4 20 141 142 0
1 4 20 141 -142 0
1 4 20 -141 143 0
1 4 20 -141 -143 0
-9 1 -15 144 145 0
-9 1 -15 144 -145 0
-9 1 -15 -144 146 0
-9 1 -15 -144 -146 0
-4 -20 18 147 148 0
-4 -20 18 147 -148 0
-4 -20 18 -147 149 0
-4 -20 18 -147 -149 0
16 18 8 150 151 0
16 18 8 150 -151 0
16 18 8 -150 152 0
16 18 8 -150 -152 0
6 5 9 153 154 0
6 5 9 153 -154 0
6 5 9 -153 155 0
6 5 9 -153 -155 0
10 -4 -14 156 157 0
10 -4 -14 156 -157 0
10 -4 -14 -156 158 0
10 -4 -14 -156 -158 0
-18 -2 1 159 160 0
-18 -2 1 159 -160 0
-18 -2 1 -159 161 0
-18 -2 1 -159 -161 0
-4 8 1 162 163 0
-4 8 1 162 -163 0
-4 8 1 -162 164 0
-4 8 1 -162 -164 0
-14 19 -10 165 166 0
-14 19 -10 165 -166 0
-14 19 -10 -165 167 0
-14 19 -10 -165 -167 0
3 6 -4 168 169 0
3 6 -4 168 -169 0
3 6 -4 -168 170 0
3 6 -4 -168 -170 0
17 12 7 171 172 0
17 12 7 171 -172 0
17 12 7 -171 173 0
17 12 7 -171 -173 0
4 -7 -16 174 175 0
4 -7 -16 174 -175 0
4 -7 -16 -174 176 0
4 -7 -16 -174 -176 0
10 2 19 177 178 0
10 2 19 177 -178 0
10 2 19 -177 179 0
10 2 19 -177 -179 0
-1 2 12 180 181 0
-1 2 12 180 -181 0
-1 2 12 -180 182 0
-1 2 12 -180 -182 0
1 -9 10 183 184 0
1 -9 10 183 -184 0
1 -9 10 -183 185 0
1 -9 10 -183 -185 0
5 -9 -10 186 187 0
5 -9 -10 186 -187 0
5 -9 -10 -186 188 0
5 -9 -10 -186 -188 0
13 20 -3 189 190 0
13 20 -3 189 -190 0
13 20 -3 -189 191 0
13 20 -3 -189 -191 0
7 15 18 192 193 0
7 15 18 192 -193 0
7 15 18 -192 194 0
7 15 18 -192 -194 0
-7 -2 3 195 196 0
-7 -2 3 195 -196 0
-7 -2 3 -195 197 0
-7 -2 3 -195 -197 0
-4 20 -14 198 199 0
-4 20 -14 198 -199 0
-4 20 -14 -198 200 0
-4 20 -14 -198 -200 0
17 12 -20 201 202 0
17 12 -20 201 -202 0
17 12 -20 -201 203 0
17 12 -20 -201 -203 0
3 14 -13 204 205 0
3 14 -13 204 -205 0
3 14 -13 -204 206 0
3 14 -13 -204 -206 0
-1 -8 -13 207 208 0
-1 -8 -13 207 -208 0
-1 -8 -13 -207 209 0
-1 -8 -13 -207 -209 0
19 -20 -16 210 211 0
19 -20 -16 210 -211 0
19 -20 -16 -210 212 0
19 -20 -16 -210 -212 0
-6 -1 15 213 214 0
-6 -1 15 213 -214 0
-6 -1 15 -213 215 0
-6 -1 15 -213 -215 0
10 -12 -13 216 217 0
10 -12 -13 216 -217 0
10 -12 -13 -216 218 0
10 -12 -13 -216 -218 0
-3 1 8 219 220 0
-3 1 8 219 -220 0
-3 1 8 -219 221 0
-3 1 8 -219 -221 0
13 5 -18 222 223 0
13 5 -18 222 -223 0
13 5 -18 -222 224 0
13 5 -18 -222 -224 0
-19 1 10 225 226 0
-19 1 10 225 -226 0
-19 1 10 -225 227 0
-19 1 10 -225 -227 0
9 7 8 228 229 0
9 7 8 228 -229 0
9 7 8 -228 230 0
9 7 8 -228 -230 0
-5 16 -14 231 232 0
-5 16 -14 231 -232 0
-5 16 -14 -231 233 0
-5 16 -14 -231 -233 0
-11 8 -13 234 235 0
-11 8 -13 234 -235 0
-11 8 -13 -234 236 0
-11 8 -13 -234 -236 0
8 -15 2 237 238 0
8 -15 2 237 -238 0
8 -15 2 -237 239 0
8 -15 2 -237 -239 0
15 -17 5 240 241 0
15 -17 5 240 -241 0
15 -17 5 -240 242 0
15 -17 5 -240 -242 0
12 -20 19 243 244 0
12 -20 19 243 -244 0
12 -20 19 -243 245 0
12 -20 19 -243 -245 0
7 -13 16 246 247 0
7 -13 16 246 -247 0
7 -13 16 -246 248 0
7 -13 16 -246 -248 0
-16 5 -20 249 250 0
-16 5 -20 249 -250 0
-16 5 -20 -249 251 0
-16 5 -20 -249 -251 0
-1 18 -6 252 253 0
-1 18 -6 252 -253 0
-1 18 -6 -252 254 0
-1 18 -6 -252 -254 0
17 -6 -5 255 256 0
17 -6 -5 255 -256 0
17 -6 -5 -255 257 0
17 -6 -5 -255 -257 0
6 3 -15 258 259 0
6 3 -15 258 -259 0
6 3 -15 -258 260 0
6 3 -15 -258 -260 0
-15 -13 -11 261 262 0
-15 -13 -11 261 -262 0
-15 -13 -11 -261 263 0
-15 -13 -11 -261 -263 0
14 16 -18 264 265 0
14 16 -18 264 -265 0
14 16 -18 -264 266 0
14 16 -18 -264 -266 0
-9 3 -11 267 268 0
-9 3 -11 267 -268 0
-9 3 -11 -267 269 0
-9 3 -11 -267 -269 0
-14 19 18 270 271 0
-14 19 18 270 -271 0
-14 19 18 -270 272 0
-14 19 18 -270 -272 0
14 -11 -12 273 274 0
14 -11 -12 273 -274 0
14 -11 -12 -273 275 0
14 -11 -12 -273 -275 0
-3 -14 -5 276 277 0
-3 -14 -5 276 -277 0
-3 -14 -5 -276 278 0
-3 -14 -5 -276 -278 0
-11 -7 8 279 280 0
-11 -7 8 279 -280 0
-11 -7 8 -279 281 0
-11 -7 8 -279 -281 0
-3 -16 12 282 283 0
-3 -16 12 282 -283 0
-3 -16 12 -282 284 0
-3 -16 12 -282 -284 0
10 16 -2 285 286 0
10 16 -2 285 -286 0
10 16 -2 -285 287 0
10 16 -2 -285 -287 0
1 -12 -3 288 289 0
1 -12 -3 288 -289 0
1 -12 -3 -288 290 0
1 -12 -3 -288 -290 0
11 -5 -19 291 292 0
11 -5 -19 291 -292 0
11 -5 -19 -291 293 0
11 -5 -19 -291 -293 0
294 295 297 301 309 0
294 295 297 301 -309 0
294 295 297 -301 310 0
294 295 297 -301 -310 0
294 295 -297 302 311 0
294 295 -297 302 -311 0
294 295 -297 -302 312 0
294 295 -297 -302 -312 0
294 -295 298 303 313 0
294 -295 298 303 -313 0
294 -295 298 -303 314 0
294 -295 298 -303 -314 0
294 -295 -298 304 315 0
294 -295 -298 304 -315 0
294 -295 -298 -304 316 0
294 -295 -298 -304 -316 0
-294 296 299 305 317 0
-294 296 299 305 -317 0
-294 296 299 -305 318 0
-294 296 299 -305 -318 0
-294 296 -299 306 319 0
-294 296 -299 306 -319 0
-294 296 -299 -306 320 0
-294 296 -299 -306 -320 0
-294 -296 300 307 321 0
-294 -296 300 307 -321 0
-294 -296 300 -307 322 0
-294 -296 300 -307 -322 0
-294 -296 -300 308 323 0
-294 -296 -300 308 -323 0
-294 -296 -300 -308 324 0
-294 -296 -300 -308 -324 0
325 326 328 332 340 0
325 326 328 332 -340 0
325 326 328 -332 341 0
325 326 328 -332 -341 0
325 326 -328 333 342 0
325 326 -328 333 -342 0
325 326 -328 -333 343 0
325 326 -328 -333 -343 0
325 -326 329 334 344 0
325 -326 329 334 -344 0
325 -326 329 -334 345 0
325 -326 329 -334 -345 0
325 -326 -329 335 346 0
325 -326 -329 335 -346 0
325 -326 -329 -335 347 0
325 -326 -329 -335 -347 0
-325 327 330 336 348 0
-325 327 330 336 -348 0
-325 327 330 -336 349 0
-325 327 330 -336 -349 0
-325 327 -330 337 350 0
-325 327 -330 337 -350 0
-325 327 -330 -337 351 0
-325 327 -330 -337 -351 0
-325 -327 331 338 352 0
-325 -327 331 338 -352 0
-325 -327 331 -338 353 0
-325 -327 331 -338 -353 0
-325 -327 -331 339 354 0
-325 -327 -331 339 -354 0
-325 -327 -331 -339 355 0
-325 -327 -331 -339 -355 0
356 357 359 363 371 0
356 357 359 363 -371 0
356 357 359 -363 372 0
356 357 359 -363 -372 0
356 357 -359 364 373 0
356 357 -359 364 -373 0
356 357 -359 -364 374 0
356 357 -359 -364 -374 0
356 -357 360 365 375 0
356 -357 360 365 -375 0
356 -357 360 -365 376 0
356 -357 360 -365 -376 0
356 -357 -360 366 377 0
356 -357 -360 366 -377 0
356 -357 -360 -366 378 0
356 -357 -360 -366 -378 0
-356 358 361 367 379 0
-356 358 361 367 -379 0
-356 358 361 -367 380 0
-356 358 361 -367 -380 0
-356 358 -361 368 381 0
-356 358 -361 368 -381 0
-356 358 -361 -368 382 0
-356 358 -361 -368 -382 0
-356 -358 362 369 383 0
-356 -358 362 369 -383 0
-356 -358 362 -369 384 0
-356 -358 362 -369 -384 0
-356 -358 -362 370 385 0
-356 -358 -362 370 -385 0
-356 -358 -362 -370 386 0
-356 -358 -362 -370 -386 0

